
Gurobi 6.5.2 (mac64) logging started Mon Oct 10 08:46:31 2016


Gurobi 6.5.2 (mac64) logging started Mon Oct 10 08:47:16 2016


Gurobi 6.5.2 (mac64) logging started Mon Oct 10 08:47:31 2016


Gurobi 6.5.2 (mac64) logging started Mon Oct 10 08:47:58 2016


Gurobi 6.5.2 (mac64) logging started Mon Oct 10 08:54:20 2016


Gurobi 6.5.2 (mac64) logging started Mon Oct 10 09:03:49 2016


Gurobi 6.5.2 (mac64) logging started Mon Oct 10 10:23:15 2016


Gurobi 6.5.2 (mac64) logging started Mon Oct 10 10:24:03 2016


Gurobi 6.5.2 (mac64) logging started Mon Oct 10 10:27:40 2016


Gurobi 6.5.2 (mac64) logging started Mon Oct 10 10:27:59 2016


Gurobi 6.5.2 (mac64) logging started Mon Oct 10 10:32:09 2016


Gurobi 6.5.2 (mac64) logging started Mon Oct 10 10:34:51 2016


Gurobi 6.5.2 (mac64) logging started Mon Oct 10 10:36:53 2016


Gurobi 6.5.2 (mac64) logging started Mon Oct 10 10:55:28 2016


Gurobi 6.5.2 (mac64) logging started Mon Oct 10 10:55:36 2016


Gurobi 6.5.2 (mac64) logging started Mon Oct 10 10:55:48 2016


Gurobi 6.5.2 (mac64) logging started Mon Oct 10 10:57:23 2016


Gurobi 6.5.2 (mac64) logging started Mon Oct 10 10:58:53 2016


Gurobi 6.5.2 (mac64) logging started Mon Oct 10 11:06:13 2016

Warning: model has pending changes.
File 'groubi_obj.lp' does not contain these changes.

Gurobi 6.5.2 (mac64) logging started Mon Oct 10 13:42:41 2016


Gurobi 6.5.2 (mac64) logging started Mon Oct 10 13:45:01 2016


Gurobi 6.5.2 (mac64) logging started Mon Oct 10 13:47:30 2016


Gurobi 6.5.2 (mac64) logging started Mon Oct 10 13:49:06 2016


Gurobi 6.5.2 (mac64) logging started Mon Oct 10 13:49:58 2016


Gurobi 6.5.2 (mac64) logging started Mon Oct 10 13:50:50 2016


Gurobi 6.5.2 (mac64) logging started Mon Oct 10 14:28:10 2016


Gurobi 6.5.2 (mac64) logging started Mon Oct 10 14:33:07 2016


Gurobi 6.5.2 (mac64) logging started Mon Oct 10 14:38:48 2016


Gurobi 6.5.2 (mac64) logging started Mon Oct 10 14:49:39 2016

